l = 3;
u = 4;
m = 40;

NEGOTIATOR = { D, N1, N2, N3, N4, N5, N6, N7 };
dummy = D;

honor = [ 0, 10, 8, 6, 3, 5, 7, 3 ]; 

joint = [| 0, 0, 0, 0, 0, 0, 0, 0
         | 0, 4, 7, 8, 4, 2, 9, 7
         | 0, 7, 9, 3, 1, 8, 6, 6
         | 0, 8, 3, 5, 2, 9, 2, 9
         | 0, 4, 1, 2, 8, 2, 4, 1
         | 0, 2, 8, 9, 2, 7, 2, 5
         | 0, 9, 6, 2, 4, 2, 1, 9
         | 0, 7, 6, 9, 1, 5, 9, 4 |]; 
